objective value:                    0.753468194116969
x(0,13,1)                                           1 	(obj:0)
x(1,4,0)                                            1 	(obj:0)
x(2,0,1)                                            1 	(obj:0)
x(3,2,1)                                            1 	(obj:0)
x(4,11,0)                                           1 	(obj:0)
x(11,1,0)                                           1 	(obj:0)
x(13,3,1)                                           1 	(obj:0)
xc(0,9)                                             1 	(obj:0)
xc(1,13)                                            1 	(obj:0)
xc(2,9)                                             1 	(obj:0)
u(0,0)                              0.753468194116969 	(obj:0)
u(0,1)                               0.39472388161901 	(obj:0)
u(2,0)                              0.753468194116969 	(obj:0)
u(2,1)                               0.35829313103247 	(obj:0)
u(4,0)                              0.224823480054638 	(obj:0)
u(5,1)                              0.753468194116969 	(obj:0)
u(6,0)                              0.753468194116969 	(obj:0)
u(6,1)                              0.753468194116969 	(obj:0)
u(9,0)                              0.753468194116969 	(obj:0)
u(10,0)                             0.753468194116969 	(obj:0)
u(10,1)                             0.753468194116969 	(obj:0)
u(11,0)                             0.753468194116969 	(obj:0)
u(11,1)                             0.753468194116969 	(obj:0)
u(12,0)                             0.753468194116969 	(obj:0)
u(12,1)                             0.753468194116969 	(obj:0)
u(13,0)                             0.753468194116969 	(obj:0)
u(13,1)                             0.753468194116969 	(obj:0)
u(14,0)                             0.753468194116969 	(obj:0)
u(14,1)                             0.753468194116969 	(obj:0)
u(15,0)                             0.753468194116969 	(obj:0)
u(15,1)                             0.753468194116969 	(obj:0)
u(16,0)                             0.753468194116969 	(obj:0)
u(16,1)                             0.753468194116969 	(obj:0)
u(17,0)                             0.753468194116969 	(obj:0)
u(17,1)                             0.753468194116969 	(obj:0)
u(18,0)                             0.753468194116969 	(obj:0)
u(18,1)                             0.753468194116969 	(obj:0)
u(19,0)                             0.753468194116969 	(obj:0)
u(19,1)                             0.753468194116969 	(obj:0)
f(0,9,0)                                            1 	(obj:0)
f(0,9,2)                                            1 	(obj:0)
f(0,9,4)                                            1 	(obj:0)
f(1,4,1)                                            1 	(obj:0)
f(1,13,1)                                           1 	(obj:0)
f(1,13,4)                                           1 	(obj:0)
f(2,0,2)                                            1 	(obj:0)
f(2,0,4)                                            1 	(obj:0)
f(2,9,1)                                            1 	(obj:0)
f(2,9,3)                                            1 	(obj:0)
f(3,2,1)                                            1 	(obj:0)
f(3,2,3)                                            1 	(obj:0)
f(3,2,4)                                            1 	(obj:0)
f(4,11,1)                                           1 	(obj:0)
f(4,11,4)                                           1 	(obj:0)
f(11,1,1)                                           1 	(obj:0)
f(11,1,4)                                           1 	(obj:0)
f(13,3,1)                                           1 	(obj:0)
f(13,3,4)                                           1 	(obj:0)
z_r(0,)                             0.753468194116969 	(obj:0)
z_r(1,)                             0.753468194116969 	(obj:0)
z                                   0.753468194116969 	(obj:1)
